
  26    0


   0  15 2 3 4 5 6 10 11 12 13 20 21 22 23 24 25 
   1   6 19 18 17 16 15 14 
   4   4 16 15 14 7 
  10   3 15 14 8 
   2   2 17 9 
   9   2 17 14 
   9   1 18 
   4   1 16 
  10   1 14 
  10   1 17 
   6   1 16 
   1   1 15 
   5   1 15 
   9   1 26
  10   1 26
   2   1 26
   8   1 26
   8   1 26
   7   1 26
   1   1 26
   3   1 26
   8   1 26
  10   1 26
   7   1 26
  10   1 26
   0   0 
